454
41
356
163
122
4
72
306
193
37
332
363
105
171
283
459
183
141
239
497
365
211
455
288
10
114
37
13
436
156
153
49
78
237
299
200
287
13
163
24
127
334
238
397
258
11
52
370
186
52
383
21
283
244
124
185
27
332
159
480
396
19
139
53
497
377
231
304
250
496
59
319
30
462
416
175
448
394
420
396
34
289
161
334
198
302
183
433
143
45
252
373
211
300
251
297
203
24
158
229
